\ENCODING=ISO-8859-1
\Problem name: ilog.cplex

Maximize
 obj: 0.05 x1 - 0.05 x2 + 0.15 x3 - 0.15 x4 + 0.4 x5 - 0.4 x6 + 0.1 x7 - 0.1 x8
      + 0.3 x9 - 0.3 x10
Subject To
 c1: - x1 + x2  = 48.558747
 c2: - x3 + x4  = 74.0361519230769
 c3: - x5 + x6  = 104.166666666667
 c4: - x7 + x8  = -75
 c5: - x9 + x10  = 0
End
